NAME: rue_15_1
TYPE: TSP
DIMENSION: 15
EDGE_WEIGHT_TYPE: EUC_2D
NODE_COORD_SECTION
1 20 6
2 25 11
3 33 32
4 3 17
5 12 27
6 4 13
7 15 27
8 23 33
9 26 18
10 9 40
11 19 38
12 32 10
13 13 9
14 23 2
15 36 34

